/*********************************************
 * OPL 20.1.0.0 Data
 * Author: Dr. Hakeem-Ur-Rehman
 * Creation Date: 08-Aug-2023 at 3:12:17 pm
 *********************************************/
NPeriods = 20;

SC = [25, 30, 40, 20, 80, 80, 150, 30, 45, 60, 30, 90, 80, 150, 25, 20, 30, 40, 20, 80];

HC = [6, 5, 4, 5, 6, 9, 9, 6, 5, 4, 5, 6, 9, 9, 6, 5, 4, 5, 6, 9];

PC = [5, 3, 7, 2, 1, 10, 15, 2, 1, 5, 1, 10, 15, 2, 1, 10, 1, 5, 1, 10];

Demand = [12, 6, 20, 5, 7, 25, 0, 5, 5, 21, 9, 5, 27, 0, 5, 20, 5, 10, 5, 25];

Capacity = [20, 15, 5, 30, 20, 20, 21, 10, 10, 5, 0, 12, 20, 5, 20, 5, 40, 20, 10, 20];